36 1000
7 104
11 196
8 150
7 104
5 169
6 154
2 153
4 153
7 169
3 109
11 111
10 164
11 166
9 154
4 150
11 124
8 190
3 190
4 164
10 130
11 178
8 193
5 196
5 200
9 178
2 133
5 133
7 166
7 124
9 193
11 152
6 130
5 200
8 111
7 152
11 109
